10J3M/DAT/10J3MUTA-8.dat
10 3
10.5474 111.2476
15.3414 235.3586
27.4155 751.6096
2.2494 5.0598
28.3394 803.1216
48.1537 2318.7788
19.7278 389.1861
48.0233 2306.2373
16.7199 279.5551
11.5145 132.5837
2510.9111