10J3M/SOL/10J3MUTA-8.sol
solution status: optimal solution found
objective value:                     76.0107666666667
x#1#1                                               1 	(obj:0)
x#2#1                               0.842242190043278 	(obj:0)
x#2#2                               0.157757809956722 	(obj:0)
x#3#2                                               1 	(obj:0)
x#4#1                                               1 	(obj:0)
x#5#2                               0.887915792800874 	(obj:0)
x#5#3                               0.112084207199126 	(obj:0)
x#6#1                               0.244364036716436 	(obj:0)
x#6#3                               0.755635963283564 	(obj:0)
x#7#3                                               1 	(obj:0)
x#8#1                               0.562461551319973 	(obj:0)
x#8#2                               0.437538448680027 	(obj:0)
x#9#3                                               1 	(obj:0)
x#10#1                                              1 	(obj:0)
z                                    76.0107666666667 	(obj:1)
